(set-logic ALL)
(declare-const BAV1 Bool)
(declare-fun a () (_ BitVec 8))
(declare-fun b () (_ BitVec 8))
(assert (forall ((x (_ BitVec 8))) (or (bvuge x (bvadd a b)) (bvule x b))))
(assert (= BAV1 (forall ((x (_ BitVec 8))) (or (bvuge x (bvadd a b)) (bvule x b)))))
(check-sat)
(get-model)